job_count = 40 ;
duration = [|22, 9, 9, 15, 13, 15, 5, 5|20, 15, 18, 11, 5, 2, 4, 14|13, 23, 12, 12, 12, 5, 9, 2|3, 15, 7, 3, 16, 17, 6, 5|5, 10, 15, 5, 4, 7, 14, 4|17, 9, 7, 11, 12, 3, 14, 3|22, 10, 10, 12, 14, 8, 8, 2|14, 17, 9, 8, 6, 12, 11, 12|5, 20, 20, 7, 16, 9, 14, 8|13, 4, 11, 6, 9, 10, 4, 7|2, 11, 9, 14, 14, 6, 4, 6|9, 10, 7, 15, 17, 12, 14, 13|11, 13, 12, 14, 16, 8, 10, 13|15, 13, 15, 17, 17, 14, 10, 14|24, 23, 2, 11, 12, 6, 4, 11|17, 13, 19, 4, 6, 9, 14, 10|12, 22, 18, 6, 18, 6, 9, 8|16, 15, 16, 8, 18, 3, 12, 10|24, 20, 5, 11, 18, 6, 12, 14|13, 6, 5, 20, 9, 13, 11, 12|24, 23, 5, 3, 6, 9, 9, 10|15, 10, 19, 20, 12, 17, 11, 13|24, 5, 15, 10, 16, 10, 3, 8|16, 3, 15, 15, 18, 7, 13, 9|20, 5, 21, 14, 17, 5, 3, 5|22, 16, 18, 5, 7, 11, 5, 8|13, 3, 5, 9, 18, 14, 15, 3|7, 2, 5, 19, 11, 7, 6, 5|18, 19, 14, 3, 4, 14, 8, 7|6, 9, 13, 14, 3, 7, 9, 6|18, 5, 4, 16, 6, 2, 10, 10|2, 19, 5, 16, 10, 3, 9, 5|3, 21, 16, 9, 5, 5, 5, 11|3, 18, 19, 13, 6, 14, 2, 11|2, 14, 14, 11, 4, 5, 4, 14|10, 18, 21, 6, 12, 3, 8, 14|7, 8, 15, 16, 4, 5, 3, 11|9, 14, 9, 15, 8, 10, 9, 8|4, 3, 7, 8, 11, 13, 3, 12|9, 8, 13, 12, 5, 12, 2, 8|] ;
machine_count = 8 ;
cost = [|24, 22, 25, 19, 41, 29, 27, 43|23, 30, 34, 24, 23, 42, 47, 28|24, 24, 22, 20, 30, 41, 35, 48|31, 27, 33, 22, 21, 35, 44, 52|16, 29, 32, 32, 21, 33, 24, 49|29, 31, 32, 27, 34, 40, 44, 34|21, 25, 28, 21, 31, 22, 38, 31|17, 29, 19, 26, 32, 41, 32, 41|29, 23, 28, 29, 35, 31, 45, 48|16, 17, 22, 31, 24, 34, 43, 32|24, 17, 23, 27, 34, 35, 41, 28|21, 28, 27, 33, 38, 31, 39, 31|24, 29, 26, 25, 33, 34, 46, 45|25, 22, 21, 34, 27, 32, 45, 38|16, 28, 31, 26, 27, 29, 36, 42|24, 25, 33, 22, 23, 33, 39, 52|28, 19, 33, 30, 24, 27, 26, 53|23, 22, 20, 34, 39, 35, 39, 45|29, 33, 23, 26, 25, 40, 41, 45|27, 21, 23, 29, 31, 31, 34, 38|27, 33, 23, 25, 21, 24, 31, 27|28, 27, 23, 27, 25, 42, 45, 31|27, 18, 35, 24, 41, 40, 32, 33|26, 17, 22, 29, 29, 41, 30, 47|19, 25, 24, 36, 36, 25, 29, 29|22, 28, 18, 22, 36, 40, 33, 43|19, 29, 20, 36, 21, 22, 39, 47|20, 20, 22, 19, 39, 31, 33, 34|24, 17, 26, 29, 24, 23, 34, 53|16, 18, 34, 30, 41, 38, 26, 48|21, 23, 21, 33, 31, 24, 43, 39|18, 20, 20, 37, 36, 38, 29, 35|24, 31, 25, 20, 22, 34, 39, 51|22, 17, 34, 32, 23, 30, 43, 37|16, 32, 22, 27, 32, 31, 39, 31|19, 32, 27, 26, 27, 34, 41, 45|26, 22, 18, 23, 31, 41, 45, 34|27, 30, 23, 22, 39, 35, 28, 52|29, 30, 22, 26, 25, 25, 36, 29|29, 30, 24, 19, 21, 42, 42, 29|] ;
deadline = [33, 33, 33, 33, 33, 33, 33, 33, 33, 33, 33, 33, 33, 33, 33, 33, 33, 33, 33, 33, 33, 33, 33, 33, 33, 33, 33, 33, 33, 33, 33, 33, 33, 33, 33, 33, 33, 33, 33, 33] ;
release = [0, 0, 0, 0, 0, 0, 0, 0, 0, 0, 0, 0, 0, 0, 0, 0, 0, 0, 0, 0, 0, 0, 0, 0, 0, 0, 0, 0, 0, 0, 0, 0, 0, 0, 0, 0, 0, 0, 0, 0] ;
resource = [|4, 4, 4, 4, 4, 4, 4, 4|5, 5, 5, 5, 5, 5, 5, 5|2, 2, 2, 2, 2, 2, 2, 2|7, 7, 7, 7, 7, 7, 7, 7|6, 6, 6, 6, 6, 6, 6, 6|7, 7, 7, 7, 7, 7, 7, 7|1, 1, 1, 1, 1, 1, 1, 1|3, 3, 3, 3, 3, 3, 3, 3|5, 5, 5, 5, 5, 5, 5, 5|4, 4, 4, 4, 4, 4, 4, 4|4, 4, 4, 4, 4, 4, 4, 4|5, 5, 5, 5, 5, 5, 5, 5|4, 4, 4, 4, 4, 4, 4, 4|1, 1, 1, 1, 1, 1, 1, 1|8, 8, 8, 8, 8, 8, 8, 8|9, 9, 9, 9, 9, 9, 9, 9|7, 7, 7, 7, 7, 7, 7, 7|9, 9, 9, 9, 9, 9, 9, 9|7, 7, 7, 7, 7, 7, 7, 7|1, 1, 1, 1, 1, 1, 1, 1|9, 9, 9, 9, 9, 9, 9, 9|8, 8, 8, 8, 8, 8, 8, 8|8, 8, 8, 8, 8, 8, 8, 8|3, 3, 3, 3, 3, 3, 3, 3|6, 6, 6, 6, 6, 6, 6, 6|6, 6, 6, 6, 6, 6, 6, 6|6, 6, 6, 6, 6, 6, 6, 6|8, 8, 8, 8, 8, 8, 8, 8|7, 7, 7, 7, 7, 7, 7, 7|4, 4, 4, 4, 4, 4, 4, 4|9, 9, 9, 9, 9, 9, 9, 9|8, 8, 8, 8, 8, 8, 8, 8|8, 8, 8, 8, 8, 8, 8, 8|2, 2, 2, 2, 2, 2, 2, 2|6, 6, 6, 6, 6, 6, 6, 6|2, 2, 2, 2, 2, 2, 2, 2|6, 6, 6, 6, 6, 6, 6, 6|6, 6, 6, 6, 6, 6, 6, 6|5, 5, 5, 5, 5, 5, 5, 5|2, 2, 2, 2, 2, 2, 2, 2|] ;
capacities = [10, 10, 10, 10, 10, 10, 10, 10] ;
